special_bonds   amber
bond_style          harmonic
angle_style         harmonic
dihedral_style	    fourier
improper_style	    cvff
pair_style			lj/charmm/coul/long 9.0 10.0 10.0
pair_modify mix arithmetic